min: c;

c = 3.81070946416472 * u3_t10_h0 + 3.83559998401299 * u3_t10_h1 + 3.76019218528623 * u3_t4_h2 + 3.76019218528623 * u3_t10_h2 + 2.92149744174007 * u3_t4_h3 + 2.92149744174007 * u3_t10_h3 + 3.37579931041322 * u3_t4_h4 + 3.37579931041322 * u3_t10_h4 + 3.90980868865498 * u3_t4_h5 + 3.90980868865498 * u3_t10_h5 + 4.21921017220843 * u3_t4_h6 + 4.21921017220843 * u3_t10_h6 + 3.71888973823202 * u3_t4_h7 + 3.71888973823202 * u3_t9_h7 + 3.71888973823202 * u3_t10_h7 + 5.55683668047545 * u3_t4_h8 + 5.55683668047545 * u3_t9_h8 + 5.41908433499113 * u3_t4_h9 + 5.41908433499113 * u3_t9_h9 + 5.15172332174105 * u3_t4_h10 + 5.15172332174105 * u3_t6_h10 + 5.15172332174105 * u3_t9_h10 + 3.48955240614058 * u3_t3_h11 + 3.48955240614058 * u3_t4_h11 + 3.48955240614058 * u3_t6_h11 + 3.48955240614058 * u3_t9_h11 + 5.95075516621108 * u3_t3_h12 + 5.95075516621108 * u3_t4_h12 + 5.95075516621108 * u3_t6_h12 + 5.95075516621108 * u3_t9_h12 + 4.83252396257116 * u3_t3_h13 + 4.83252396257116 * u3_t4_h13 + 4.83252396257116 * u3_t5_h13 + 4.83252396257116 * u3_t6_h13 + 4.83252396257116 * u3_t9_h13 + 5.23838138964465 * u3_t3_h14 + 5.23838138964465 * u3_t4_h14 + 5.23838138964465 * u3_t5_h14 + 5.23838138964465 * u3_t6_h14 + 5.23838138964465 * u3_t9_h14 + 5.92721682878892 * u3_t2_h15 + 5.92721682878892 * u3_t3_h15 + 5.92721682878892 * u3_t4_h15 + 5.92721682878892 * u3_t5_h15 + 5.92721682878892 * u3_t6_h15 + 5.92721682878892 * u3_t9_h15 + 5.39805471403348 * u3_t2_h16 + 5.39805471403348 * u3_t4_h16 + 5.39805471403348 * u3_t5_h16 + 5.39805471403348 * u3_t6_h16 + 5.39805471403348 * u3_t9_h16 + 6.66347694016676 * u3_t2_h17 + 6.66347694016676 * u3_t4_h17 + 6.66347694016676 * u3_t6_h17 + 6.66347694016676 * u3_t9_h17 + 6.06929245989174 * u3_t2_h18 + 6.06929245989174 * u3_t6_h18 + 6.06929245989174 * u3_t9_h18 + 5.61681122482991 * u3_t2_h19 + 5.61681122482991 * u3_t9_h19 + 5.85714423642274 * u3_t1_h20 + 5.85714423642274 * u3_t2_h20 + 5.85714423642274 * u3_t8_h20 + 5.85714423642274 * u3_t9_h20 + 5.34619491856112 * u3_t1_h21 + 5.34619491856112 * u3_t2_h21 + 5.34619491856112 * u3_t7_h21 + 5.34619491856112 * u3_t8_h21 + 5.34619491856112 * u3_t9_h21 + 5.65352267332662 * u3_t1_h22 + 5.65352267332662 * u3_t7_h22 + 5.65352267332662 * u3_t8_h22 + 5.11311264895507 * u3_t1_h23 + 5.11311264895507 * u3_t7_h23 + 5.11311264895507 * u3_t8_h23;
0 <= u3_t1_h20 <= 1;
0 <= u3_t1_h21 <= 1;
0 <= u3_t1_h22 <= 1;
0 <= u3_t1_h23 <= 1;
u3_t1_h20 + u3_t1_h21 + u3_t1_h22 + u3_t1_h23 = 2;
0 <= u3_t2_h15 <= 1;
0 <= u3_t2_h16 <= 1;
0 <= u3_t2_h17 <= 1;
0 <= u3_t2_h18 <= 1;
0 <= u3_t2_h19 <= 1;
0 <= u3_t2_h20 <= 1;
0 <= u3_t2_h21 <= 1;
u3_t2_h15 + u3_t2_h16 + u3_t2_h17 + u3_t2_h18 + u3_t2_h19 + u3_t2_h20 + u3_t2_h21 = 3;
0 <= u3_t3_h11 <= 1;
0 <= u3_t3_h12 <= 1;
0 <= u3_t3_h13 <= 1;
0 <= u3_t3_h14 <= 1;
0 <= u3_t3_h15 <= 1;
u3_t3_h11 + u3_t3_h12 + u3_t3_h13 + u3_t3_h14 + u3_t3_h15 = 2;
0 <= u3_t4_h2 <= 1;
0 <= u3_t4_h3 <= 1;
0 <= u3_t4_h4 <= 1;
0 <= u3_t4_h5 <= 1;
0 <= u3_t4_h6 <= 1;
0 <= u3_t4_h7 <= 1;
0 <= u3_t4_h8 <= 1;
0 <= u3_t4_h9 <= 1;
0 <= u3_t4_h10 <= 1;
0 <= u3_t4_h11 <= 1;
0 <= u3_t4_h12 <= 1;
0 <= u3_t4_h13 <= 1;
0 <= u3_t4_h14 <= 1;
0 <= u3_t4_h15 <= 1;
0 <= u3_t4_h16 <= 1;
0 <= u3_t4_h17 <= 1;
u3_t4_h2 + u3_t4_h3 + u3_t4_h4 + u3_t4_h5 + u3_t4_h6 + u3_t4_h7 + u3_t4_h8 + u3_t4_h9 + u3_t4_h10 + u3_t4_h11 + u3_t4_h12 + u3_t4_h13 + u3_t4_h14 + u3_t4_h15 + u3_t4_h16 + u3_t4_h17 = 3;
0 <= u3_t5_h13 <= 1;
0 <= u3_t5_h14 <= 1;
0 <= u3_t5_h15 <= 1;
0 <= u3_t5_h16 <= 1;
u3_t5_h13 + u3_t5_h14 + u3_t5_h15 + u3_t5_h16 = 2;
0 <= u3_t6_h10 <= 1;
0 <= u3_t6_h11 <= 1;
0 <= u3_t6_h12 <= 1;
0 <= u3_t6_h13 <= 1;
0 <= u3_t6_h14 <= 1;
0 <= u3_t6_h15 <= 1;
0 <= u3_t6_h16 <= 1;
0 <= u3_t6_h17 <= 1;
0 <= u3_t6_h18 <= 1;
u3_t6_h10 + u3_t6_h11 + u3_t6_h12 + u3_t6_h13 + u3_t6_h14 + u3_t6_h15 + u3_t6_h16 + u3_t6_h17 + u3_t6_h18 = 2;
0 <= u3_t7_h21 <= 1;
0 <= u3_t7_h22 <= 1;
0 <= u3_t7_h23 <= 1;
u3_t7_h21 + u3_t7_h22 + u3_t7_h23 = 2;
0 <= u3_t8_h20 <= 1;
0 <= u3_t8_h21 <= 1;
0 <= u3_t8_h22 <= 1;
0 <= u3_t8_h23 <= 1;
u3_t8_h20 + u3_t8_h21 + u3_t8_h22 + u3_t8_h23 = 1;
0 <= u3_t9_h7 <= 1;
0 <= u3_t9_h8 <= 1;
0 <= u3_t9_h9 <= 1;
0 <= u3_t9_h10 <= 1;
0 <= u3_t9_h11 <= 1;
0 <= u3_t9_h12 <= 1;
0 <= u3_t9_h13 <= 1;
0 <= u3_t9_h14 <= 1;
0 <= u3_t9_h15 <= 1;
0 <= u3_t9_h16 <= 1;
0 <= u3_t9_h17 <= 1;
0 <= u3_t9_h18 <= 1;
0 <= u3_t9_h19 <= 1;
0 <= u3_t9_h20 <= 1;
0 <= u3_t9_h21 <= 1;
u3_t9_h7 + u3_t9_h8 + u3_t9_h9 + u3_t9_h10 + u3_t9_h11 + u3_t9_h12 + u3_t9_h13 + u3_t9_h14 + u3_t9_h15 + u3_t9_h16 + u3_t9_h17 + u3_t9_h18 + u3_t9_h19 + u3_t9_h20 + u3_t9_h21 = 2;
0 <= u3_t10_h0 <= 1;
0 <= u3_t10_h1 <= 1;
0 <= u3_t10_h2 <= 1;
0 <= u3_t10_h3 <= 1;
0 <= u3_t10_h4 <= 1;
0 <= u3_t10_h5 <= 1;
0 <= u3_t10_h6 <= 1;
0 <= u3_t10_h7 <= 1;
u3_t10_h0 + u3_t10_h1 + u3_t10_h2 + u3_t10_h3 + u3_t10_h4 + u3_t10_h5 + u3_t10_h6 + u3_t10_h7 = 3;
